2 advanced practice/practice/out.mps
NAME knap
OBJSENSE MAX
ROWS
 N  OBJ
 L  c0      
 L  c1      
COLUMNS
    MARKER    'MARKER'                 'INTORG'
    item1     OBJ       16
    item1     c0        2
    item1     c1        3000
    item2     OBJ       19
    item2     c0        3
    item2     c1        3500
    item3     OBJ       23
    item3     c0        4
    item3     c1        5100
    item4     OBJ       28
    item4     c0        5
    item4     c1        7200
    MARKER    'MARKER'                 'INTEND'
RHS
    RHS1      c0        7
    RHS1      c1        20000
BOUNDS
 BV BND1      item1   
 BV BND1      item2   
 BV BND1      item3   
 BV BND1      item4   
ENDATA
